%chk=CoEDDS.chk
%mem=32GB
%nproc=36
# B3LYP/GEN iop(2/11=1) freq(SaveNM) scf(xqc) scrf(cpcm,solvent=water)

CoEDDS

-1 1
 Co                 0.00000000    0.00000000    0.10609585
 O                  2.27290602    3.14713193   -0.31699650
 C                  1.42788896    2.26127898   -0.34605836
 O                  1.61006297    1.04667295    0.05963456
 C                  0.00925087    2.54174708   -0.87418306
 N                 -0.54865430    1.23626113   -1.30641899
 C                  0.01541740    0.75623915   -2.60066613
 H                 -0.54461374    1.16920421   -3.43968600
 H                  1.04114141    1.11443009   -2.67169533
 C                 -0.01541740   -0.75623915   -2.60066613
 N                  0.54865430   -1.23626113   -1.30641899
 C                 -0.00925087   -2.54174708   -0.87418306
 C                 -1.42788896   -2.26127898   -0.34605836
 O                 -2.27290602   -3.14713193   -0.31699650
 O                 -1.61006297   -1.04667295    0.05963456
 C                  0.86909574   -3.16766201    0.20523455
 C                  1.09403006   -2.34243207    1.47663254
 O                  1.62157922   -2.90569414    2.43922141
 O                  0.74908913   -1.10326605    1.50075865
 H                  0.43884475   -4.12439999    0.50044760
 H                  1.85443565   -3.39405805   -0.21251166
 H                 -0.07464965   -3.22526888   -1.72251926
 H                  1.56305553   -1.28143999   -1.36809552
 H                  0.54461374   -1.16920421   -3.43968600
 H                 -1.04114141   -1.11443009   -2.67169533
 H                 -1.56305553    1.28143999   -1.36809552
 H                  0.07464965    3.22526888   -1.72251926
 C                 -0.86909574    3.16766201    0.20523455
 C                 -1.09403006    2.34243207    1.47663254
 O                 -1.62157922    2.90569414    2.43922141
 O                 -0.74908913    1.10326605    1.50075865
 H                 -0.43884475    4.12439999    0.50044760
 H                 -1.85443565    3.39405805   -0.21251166

H     0
S    3   1.00
     34.0613410              0.60251978D-02
      5.1235746              0.45021094D-01
      1.1646626              0.20189726
S    1   1.00
      0.32723041             1.0000000
S    1   1.00
      0.10307241             1.0000000
P    1   1.00
      0.8000000              1.0000000
P    1   1.00
      0.95774129632D-01      1.0000000
****
C     0
S    6   1.00
  13575.3496820              0.22245814352D-03
   2035.2333680              0.17232738252D-02
    463.22562359             0.89255715314D-02
    131.20019598             0.35727984502D-01
     42.853015891            0.11076259931
     15.584185766            0.24295627626
S    2   1.00
      6.2067138508           0.41440263448
      2.5764896527           0.23744968655
S    1   1.00
      0.57696339419          1.0000000
S    1   1.00
      0.22972831358          1.0000000
S    1   1.00
      0.95164440028D-01      1.0000000
S    1   1.00
      0.48475401370D-01      1.0000000
P    4   1.00
     34.697232244            0.53333657805D-02
      7.9582622826           0.35864109092D-01
      2.3780826883           0.14215873329
      0.81433208183          0.34270471845
P    1   1.00
      0.28887547253           .46445822433
P    1   1.00
      0.10056823671           .24955789874
D    1   1.00
      1.09700000             1.0000000
D    1   1.00
      0.31800000             1.0000000
D    1   1.00
      0.90985336424D-01      1.0000000
F    1   1.00
      0.76100000             1.0000000
****
N     0
S    6   1.00
  19730.8006470              0.21887984991D-03
   2957.8958745              0.16960708803D-02
    673.22133595             0.87954603538D-02
    190.68249494             0.35359382605D-01
     62.295441898            0.11095789217
     22.654161182            0.24982972552
S    2   1.00
      8.9791477428           0.40623896148
      3.6863002370           0.24338217176
S    1   1.00
      0.84660076805          1.0000000
S    1   1.00
      0.33647133771          1.0000000
S    1   1.00
      0.13647653675          1.0000000
S    1   1.00
      0.68441605847D-01      1.0000000
P    4   1.00
     49.200380510            0.55552416751D-02
     11.346790537            0.38052379723D-01
      3.4273972411           0.14953671029
      1.1785525134           0.34949305230
P    1   1.00
      0.41642204972           .45843153697
P    1   1.00
      0.14260826011           .24428771672
D    1   1.00
      1.65400000             1.0000000
D    1   1.00
      0.46900000             1.0000000
D    1   1.00
      0.12829642058          1.0000000
F    1   1.00
      1.09300000             1.0000000
****
O     0
S    6   1.00
  27032.3826310              0.21726302465D-03
   4052.3871392              0.16838662199D-02
    922.32722710             0.87395616265D-02
    261.24070989             0.35239968808D-01
     85.354641351            0.11153519115
     31.035035245            0.25588953961
S    2   1.00
     12.260860728            0.39768730901
      4.9987076005           0.24627849430
S    1   1.00
      1.1703108158           1.0000000
S    1   1.00
      0.46474740994          1.0000000
S    1   1.00
      0.18504536357          1.0000000
S    1   1.00
      0.70288026270D-01      1.0000000
P    4   1.00
     63.274954801            0.60685103418D-02
     14.627049379            0.41912575824D-01
      4.4501223456           0.16153841088
      1.5275799647           0.35706951311
P    1   1.00
      0.52935117943           .44794207502
P    1   1.00
      0.17478421270           .24446069663
P    1   1.00
      0.51112745706D-01      1.0000000
D    1   1.00
      2.31400000             1.0000000
D    1   1.00
      0.64500000             1.0000000
D    1   1.00
      0.14696477366          1.0000000
F    1   1.00
      1.42800000             1.0000000
****
Co     0
S    8   1.00
 325817.0155300              0.22568462484D-03
  48839.6364530              0.17499397533D-02
  11114.9373070              0.91003134097D-02
   3146.1603642              0.36996256837D-01
   1024.4378465              0.12044269621
    368.02508816             0.28598731649
    142.91229205             0.40908312004
     56.482649209            0.21500145739
S    4   1.00
    356.40298318            -0.24767059678D-01
    110.31165215            -0.11702139134
     17.659634834            0.55215522200
      7.5059030479           0.53246877060
S    2   1.00
     11.501807176           -0.22942470077
      1.9081994606           0.71180933514
S    1   1.00
      0.79396696891          1.0000000
S    1   1.00
      0.12444448829          1.0000000
S    1   1.00
      0.44444645379D-01      1.0000000
P    6   1.00
   1731.1369144              0.23905767685D-02
    409.91750438             0.19382999967D-01
    131.45648578             0.90905448509D-01
     48.987439714            0.26146681577
     19.537078992            0.42157264570
      7.9287281634           0.24571813557
P    3   1.00
     31.076017584           -0.29438069973D-01
      4.2835180697           0.55615568168
      1.7022921563           0.96772195064
P    1   1.00
      0.64202908602          1.0000000
P    1   1.00
      0.1413080              1.0000000
P    1   1.00
      0.34811056587D-01      1.0000000
D    4   1.00
     68.140745239            0.11983845360D-01
     19.685241019            0.73688540475D-01
      6.9322128825           0.23085496779
      2.6025125694           0.39281059225
D    1   1.00
      0.94016837302           .40203412228
D    1   1.00
      0.30381457794           .21415606743
D    1   1.00
      0.0980000              1.0000000
F    1   1.00
      1.9030000              1.0000000
****



