%chk=CoO_komplex.chk
%mem=16GB
%nproc=36
# B3LYP/6-311++G** iop(2/11=1) stable=opt scf(xqc) nosymm scrf(cpcm,solvent=water)

CoO komplex, exc. stav 1, frekvence

-1 1
 Co     -0.00367990      0.01114083     -0.09920730
  O      2.38129028     -3.16930203      0.54963328
  C      1.54664402     -2.26445846      0.55370003
  O      1.75695933     -1.03527598      0.23855788
  C      0.08316199     -2.58105969      0.95323208
  N     -0.55991951     -1.30262225      1.33684654
  C     -0.10114745     -0.75598326      2.64938167
  H     -0.67473085     -1.19185448      3.47014200
  H      0.94418611     -1.03387756      2.78092872
  C     -0.24733104      0.75543202      2.62113564
  N      0.36215941      1.28110666      1.35664883
  C     -0.23397219      2.56670432      0.90634192
  C     -1.62943786      2.24549715      0.31396246
  O     -2.45774976      3.14641353      0.19721150
  O     -1.79701336      1.01429098     -0.03254106
  C      0.67819064      3.24566888     -0.11838081
  C      1.06638939      2.43423122     -1.36166757
  O      1.67124298      3.01069365     -2.26573213
  O      0.75394195      1.17576916     -1.42945900
  H      0.20147990      4.16603322     -0.46042832
  H      1.61061558      3.55117656      0.36807610
  H     -0.36598356      3.23740438      1.75921283
  H      1.36974194      1.37379350      1.47951536
  H      0.22708930      1.21919668      3.48824479
  H     -1.30094548      1.03355893      2.62079469
  H     -1.57445680     -1.39564865      1.33761389
  H      0.09607825     -3.27178065      1.80079628
  C     -0.68075011     -3.22962273     -0.20390149
  C     -0.82798592     -2.41948029     -1.49995915
  O     -1.24026811     -3.00722692     -2.50221103
  O     -0.53622328     -1.15695830     -1.51568828
  H     -0.19789772     -4.17363786     -0.46109422
  H     -1.69309737     -3.48737701      0.12632246


--link1--
%chk=CoO_komplex.chk
%mem=16GB
%nproc=36
#p B3LYP/6-311++G** iop(2/11=1) geom=AllCheck Guess=Read td(root=1,nstates=6) freq(SaveNM) scf(xqc) nosymm scrf=(cpcm,solvent=water)


