%chk=CoO_komplex_st.chk
%mem=32GB
%nproc=36
#p B3LYP/6-311++G** iop(2/11=1) td(root=3,nstates=6) freq(SaveNM) scf(xqc) nosymm scrf=(cpcm,solvent=water)

CoO komplex, exc. stav 3, frekvence

-1 1
 Co     -0.00000392     -0.00000875      0.14407811
  O     -3.55249877      1.99041632     -0.47081161
  C     -2.50620961      1.33008133     -0.44843736
  O     -1.36269028      1.71642029     -0.03908077
  C     -2.57685348     -0.14496570     -0.94348811
  N     -1.20000891     -0.59263415     -1.31478477
  C     -0.75503210     -0.00764422     -2.61680661
  H     -1.15936539     -0.58538640     -3.45022428
  H     -1.14944316      1.00635818     -2.67715943
  C      0.75502086      0.00753892     -2.61679850
  N      1.19998885      0.59259692     -1.31480318
  C      2.57684867      0.14498754     -0.94349479
  C      2.50625852     -1.33005091     -0.44841250
  O      3.55257575     -1.99034308     -0.47075824
  O      1.36274844     -1.71642649     -0.03906704
  C      3.18166375      1.05915186      0.11999676
  C      2.39268248      1.16523333      1.42714709
  O      2.92488473      1.61725749      2.43527012
  O      1.14838387      0.79323899      1.39067360
  H      4.18563650      0.70812628      0.36269869
  H      3.29327958      2.07583188     -0.27304622
  H      3.20831626      0.17843271     -1.83500003
  H      1.15878991      1.61006736     -1.37082830
  H      1.15936642      0.58523394     -3.45024294
  H      1.14942329     -1.00646865     -2.67708769
  H     -1.15882093     -1.61010707     -1.37076366
  H     -3.20831973     -0.17839620     -1.83499496
  C     -3.18172066     -1.05907270      0.12002248
  C     -2.39271394     -1.16522300      1.42715327
  O     -2.92490918     -1.61726140      2.43527336
  O     -1.14840526     -0.79326492      1.39066876
  H     -4.18565297     -0.70794326      0.36274859
  H     -3.29345824     -2.07574478     -0.27300654




