%chk=CoO_komplex_st.chk
%mem=32GB
%nproc=36
#p B3LYP/6-311++G** iop(2/11=1) td(root=3,nstates=6) freq(SaveNM) scf(xqc) nosymm scrf=(cpcm,solvent=water)

CoO komplex, exc. stav 3, frekvence

-1 1
 Co     -0.00000392      0.14407811      0.00000875
  O     -3.55249877     -0.47081162     -1.99041632
  C     -2.50620961     -0.44843736     -1.33008133
  O     -1.36269028     -0.03908078     -1.71642029
  C     -2.57685348     -0.94348811      0.14496570
  N     -1.20000891     -1.31478477      0.59263415
  C     -0.75503210     -2.61680661      0.00764423
  H     -1.15936539     -3.45022428      0.58538641
  H     -1.14944316     -2.67715943     -1.00635817
  C      0.75502086     -2.61679850     -0.00753891
  N      1.19998885     -1.31480318     -0.59259692
  C      2.57684867     -0.94349479     -0.14498754
  C      2.50625852     -0.44841249      1.33005091
  O      3.55257575     -0.47075823      1.99034308
  O      1.36274844     -0.03906703      1.71642649
  C      3.18166375      0.11999676     -1.05915186
  C      2.39268248      1.42714709     -1.16523334
  O      2.92488473      2.43527011     -1.61725750
  O      1.14838387      1.39067360     -0.79323900
  H      4.18563650      0.36269869     -0.70812628
  H      3.29327958     -0.27304623     -2.07583188
  H      3.20831626     -1.83500003     -0.17843271
  H      1.15878991     -1.37082831     -1.61006736
  H      1.15936642     -3.45024294     -0.58523393
  H      1.14942329     -2.67708769      1.00646866
  H     -1.15882093     -1.37076365      1.61010708
  H     -3.20831973     -1.83499496      0.17839621
  C     -3.18172066      0.12002248      1.05907270
  C     -2.39271394      1.42715328      1.16522300
  O     -2.92490918      2.43527337      1.61726139
  O     -1.14840526      1.39066876      0.79326492
  H     -4.18565297      0.36274859      0.70794326
  H     -3.29345824     -0.27300653      2.07574478




