%chk=CoO_komplex.chk
%mem=40GB
%nproc=16
#p B3LYP/6-311++G** iop(2/11=1) scf(xqc) scrf=(cpcm,solvent=water) freq td(nstates=6,root=3) nosymm

CoO komplex, zakl. stav, frekvence

-1 1
 Co      0.00000000      0.05212811      0.00000000
  O      3.19355126     -0.37217189      2.21707947
  O     -3.19355126     -0.37217189     -2.21707947
  O      2.87586651      2.39655811     -1.67328015
  O     -2.87586651      2.39655811      1.67328015
  O      1.08938449      1.44674811     -0.76914188
  O     -1.08938449      1.44674811      0.76914188
  O     -1.07684183      0.00271811     -1.59001771
  O      1.07684183      0.00271811      1.59001771
  N      1.22386834     -1.35546189     -0.57373920
  N     -1.22386834     -1.35546189      0.57373920
  C      2.29202094     -0.40075189      1.38627734
  C     -2.29202094     -0.40075189     -1.38627734
  C      2.32490026      1.42866811     -1.13786876
  C     -2.32490026      1.42866811      1.13786876
  C      2.54696224     -0.92685189     -0.04161827
  C     -2.54696224     -0.92685189      0.04161827
  H     -4.12414346      0.45039811      0.52038757
  H      4.12414346      0.45039811     -0.52038757
  H      1.16038287     -3.49344189     -0.57597552
  H     -1.16038287     -3.49344189      0.57597552
  H      1.14031096     -2.72991189      1.01679562
  H     -1.14031096     -2.72991189     -1.01679562
  C      0.75820101     -2.65706189     -0.00165898
  C     -0.75820101     -2.65706189      0.00165898
  H     -3.36452778     -0.26158189      1.92437669
  H      3.36452778     -0.26158189     -1.92437669
  C      3.15769340      0.15557811     -0.93282868
  C     -3.15769340      0.15557811      0.93282868
  H     -3.22925002     -1.77880189     -0.00770805
  H      3.22925002     -1.77880189      0.00770805
  H      1.24684207     -1.41525189     -1.59079796
  H     -1.24684207     -1.41525189      1.59079796



