%nprocshared=32
%mem=32GB
%chk=CrO_komplex_mult4.chk
#b3lyp/6-311++G** stable=opt scrf=(cpcm,solvent=water) scf(xqc) nosymm

CrO komplex, zakl stav

-1 4
 Cr       0.000000      0.000000      0.215034
  O      -2.418745     -2.893177     -0.395345
  C      -1.446623     -2.186882     -0.283763
  O      -1.455154     -1.011592      0.140229
  C      -0.035680     -2.530762     -0.878109
  N       0.603811     -1.280716     -1.265391
  C       0.013395     -0.777955     -2.575092
  H       0.625328     -1.280887     -3.251476
  H      -0.944145     -1.044946     -2.787163
  C      -0.013395      0.777955     -2.575092
  N      -0.603811      1.280716     -1.265391
  C       0.035680      2.530762     -0.878109
  C       1.446623      2.186882     -0.283763
  O       2.418745      2.893177     -0.395345
  O       1.455154      1.011592      0.140229
  C      -0.779090      3.276726      0.164915
  C      -1.067743      2.398022      1.346728
  O      -1.501601      2.828967      2.394016
  O      -0.824060      1.217289      1.247004
  H      -0.391375      4.212257      0.595686
  H      -1.696709      3.570287     -0.335873
  H       0.258117      3.207278     -1.764620
  H      -1.476675      1.500189     -1.589578
  H      -0.625328      1.280887     -3.251476
  H       0.944145      1.044946     -2.787163
  H       1.476675     -1.500189     -1.589578
  H      -0.258117     -3.207278     -1.764620
  C       0.779090     -3.276726      0.164915
  C       1.067743     -2.398022      1.346728
  O       1.501601     -2.828967      2.394016
  O       0.824060     -1.217289      1.247004
  H       0.391375     -4.212257      0.595686
  H       1.696709     -3.570287     -0.335873



--link1--
%nprocshared=32
%mem=32GB
%chk=CrO_komplex_mult4.chk
#b3lyp/6-311++G** geom=allCheck guess=read opt scrf=(cpcm,solvent=water) scf(xqc) nosymm




