%nprocshared=32
%mem=32GB
%chk=CrO_komplex_mult4.chk
#b3lyp/6-311++G** stable=opt scrf=(cpcm,solvent=water) scf(xqc) nosymm

CrO komplex, zakl stav

-1 4
Cr 0.00000000 0.00000000 0.21503412
O -2.41874452 -2.89317725 -0.39534524
C -1.44662261 -2.18688199 -0.28376253
O -1.45515392 -1.01159249 0.14022945
C -0.03567956 -2.53076238 -0.87810928
N 0.60381062 -1.28071599 -1.26539065
C 0.01339481 -0.77795466 -2.57509201
H 0.62532794 -1.28088699 -3.25147576
H -0.94414513 -1.04494588 -2.78716347
C -0.01339481 0.77795466 -2.57509201
N -0.60381062 1.28071599 -1.26539065
C 0.03567956 2.53076238 -0.87810928
C 1.44662261 2.18688199 -0.28376253
O 2.41874452 2.89317725 -0.39534524
O 1.45515392 1.01159249 0.14022945
C -0.77908969 3.27672576 0.16491461
C -1.06774270 2.39802185 1.34672842
O -1.50160142 2.82896743 2.39401628
O -0.82405995 1.21728913 1.24700444
H -0.39137472 4.21225724 0.59568616
H -1.69670937 3.57028695 -0.33587307
H 0.25811654 3.20727835 -1.76461987
H -1.47667477 1.50018879 -1.58957833
H -0.62532794 1.28088699 -3.25147576
H 0.94414513 1.04494588 -2.78716347
H 1.47667477 -1.50018879 -1.58957833
H -0.25811654 -3.20727835 -1.76461987
C 0.77908969 -3.27672576 0.16491461
C 1.06774270 -2.39802185 1.34672842
O 1.50160142 -2.82896743 2.39401628
O 0.82405995 -1.21728913 1.24700444
H 0.39137472 -4.21225724 0.59568616
H 1.69670937 -3.57028695 -0.33587307



--link1--
%nprocshared=32
%mem=32GB
%chk=CrO_komplex_mult4.chk
#b3lyp/6-311++G** geom=allCheck guess=read opt scrf=(cpcm,solvent=water) scf(xqc) nosymm




