%chk=xx.chk                                                                     
%mem=30GB                                                                       
%nproc=36                                                                       
#B3LYP/aug-cc-pVTZ Geom=(NoDistance,NoAngle)                                    
nmr IOp(2/11=1) Guess=Read                                                      

 Last Z-matrix Geometry from Gaussian output                                    
Zero geometry

 0 1
  7    1.133214   -0.003153    0.000000
  6    2.283669   -0.699904    0.000000
  6    2.294717   -2.099234    0.000000
  6   -0.021296   -0.679219    0.000000
  6    1.087651   -2.792532    0.000000
  6   -0.101947   -2.069886    0.000000
  6    3.560141    0.099736    0.000000
  1    3.237777   -2.632749    0.000000
  1   -0.927219   -0.079330    0.000000
  1    1.077502   -3.876655    0.000000
  1   -1.065967   -2.563477    0.000000
  1    4.438744   -0.546594    0.000000
  1    3.603958    0.747033   -0.880470
  1    3.603958    0.747033    0.880470

--link1--
%chk=xx.chk                                                                     
%mem=30GB                                                                       
%nproc=36                                                                       
#B3LYP/aug-cc-pVTZ Geom=(NoDistance,NoAngle)                                    
nmr IOp(2/11=1) Guess=Read                                                      
guess=checkpoint

 Last Z-matrix Geometry from Gaussian output                                    
forward, mode    1, (  1)  3197.8 cm-1

 0 1
  7    1.133220   -0.003152    0.000000
  6    2.283682   -0.699868    0.000000
  6    2.295323   -2.099520    0.000000
  6   -0.021551   -0.678945    0.000000
  6    1.087689   -2.793715    0.000000
  6   -0.103705   -2.070753    0.000000
  6    3.560161    0.099722    0.000000
  1    3.231424   -2.629233    0.000000
  1   -0.924283   -0.081443    0.000000
  1    1.077567   -3.863859    0.000000
  1   -1.046527   -2.553542    0.000000
  1    4.438500   -0.546422    0.000000
  1    3.603948    0.747012   -0.880458
  1    3.603948    0.747012    0.880458

--link1--
%chk=xx.chk                                                                     
%mem=30GB                                                                       
%nproc=36                                                                       
#B3LYP/aug-cc-pVTZ Geom=(NoDistance,NoAngle)                                    
nmr IOp(2/11=1) Guess=Read                                                      
guess=checkpoint

 Last Z-matrix Geometry from Gaussian output                                    
forward, mode    2, (  2)  3187.3 cm-1

 0 1
  7    1.133236   -0.003155    0.000000
  6    2.283652   -0.699980    0.000000
  6    2.293084   -2.098334    0.000000
  6   -0.021433   -0.679085    0.000000
  6    1.087760   -2.791626    0.000000
  6   -0.102901   -2.070431    0.000000
  6    3.560085    0.099791    0.000000
  1    3.256124   -2.643081    0.000000
  1   -0.925669   -0.080432    0.000000
  1    1.077296   -3.886800    0.000000
  1   -1.054694   -2.557628    0.000000
  1    4.439439   -0.547082    0.000000
  1    3.603975    0.746980   -0.880377
  1    3.603975    0.746980    0.880377

--link1--
%chk=xx.chk                                                                     
%mem=30GB                                                                       
%nproc=36                                                                       
#B3LYP/aug-cc-pVTZ Geom=(NoDistance,NoAngle)                                    
nmr IOp(2/11=1) Guess=Read                                                      
guess=checkpoint

 Last Z-matrix Geometry from Gaussian output                                    
forward, mode    3, (  3)  3173.3 cm-1

 0 1
  7    1.133219   -0.003155    0.000000
  6    2.283646   -0.699936    0.000000
  6    2.293658   -2.098570    0.000000
  6   -0.021107   -0.679360    0.000000
  6    1.087653   -2.794348    0.000000
  6   -0.101446   -2.069565    0.000000
  6    3.560093    0.099784    0.000000
  1    3.250523   -2.640007    0.000000
  1   -0.929326   -0.077902    0.000000
  1    1.077677   -3.855534    0.000000
  1   -1.072263   -2.566774    0.000000
  1    4.439366   -0.547030    0.000000
  1    3.603955    0.746960   -0.880361
  1    3.603955    0.746960    0.880361

--link1--
%chk=xx.chk                                                                     
%mem=30GB                                                                       
%nproc=36                                                                       
#B3LYP/aug-cc-pVTZ Geom=(NoDistance,NoAngle)                                    
nmr IOp(2/11=1) Guess=Read                                                      
guess=checkpoint

 Last Z-matrix Geometry from Gaussian output                                    
forward, mode    4, (  4)  3147.4 cm-1

 0 1
  7    1.133202   -0.003165    0.000000
  6    2.283713   -0.699914    0.000000
  6    2.294645   -2.099198    0.000000
  6   -0.023162   -0.677884    0.000000
  6    1.087662   -2.792612    0.000000
  6   -0.101591   -2.069785    0.000000
  6    3.560155    0.099717    0.000000
  1    3.238581   -2.633185    0.000000
  1   -0.905303   -0.094118    0.000000
  1    1.077491   -3.875646    0.000000
  1   -1.070256   -2.565548    0.000000
  1    4.438529   -0.546447    0.000000
  1    3.603958    0.747068   -0.880524
  1    3.603958    0.747068    0.880524

--link1--
%chk=xx.chk                                                                     
%mem=30GB                                                                       
%nproc=36                                                                       
#B3LYP/aug-cc-pVTZ Geom=(NoDistance,NoAngle)                                    
nmr IOp(2/11=1) Guess=Read                                                      
guess=checkpoint

 Last Z-matrix Geometry from Gaussian output                                    
forward, mode    5, (  5)  3116.1 cm-1

 0 1
  7    1.133206   -0.003157    0.000000
  6    2.283684   -0.699850    0.000000
  6    2.294809   -2.099290    0.000000
  6   -0.021309   -0.679197    0.000000
  6    1.087647   -2.792523    0.000000
  6   -0.101945   -2.069891    0.000000
  6    3.558589    0.101682    0.000000
  1    3.236771   -2.632210    0.000000
  1   -0.926953   -0.079513    0.000000
  1    1.077500   -3.876813    0.000000
  1   -1.065996   -2.563499    0.000000
  1    4.458115   -0.560977    0.000000
  1    3.603408    0.742432   -0.873555
  1    3.603408    0.742432    0.873555

--link1--
%chk=xx.chk                                                                     
%mem=30GB                                                                       
%nproc=36                                                                       
#B3LYP/aug-cc-pVTZ Geom=(NoDistance,NoAngle)                                    
nmr IOp(2/11=1) Guess=Read                                                      
guess=checkpoint

 Last Z-matrix Geometry from Gaussian output                                    
forward, mode    6, (  6)  3084.6 cm-1

 0 1
  7    1.133214   -0.003153    0.000006
  6    2.283669   -0.699904   -0.000023
  6    2.294717   -2.099234   -0.000006
  6   -0.021296   -0.679219    0.000003
  6    1.087651   -2.792532   -0.000000
  6   -0.101947   -2.069886    0.000000
  6    3.560141    0.099736   -0.002492
  1    3.237777   -2.632749    0.000005
  1   -0.927219   -0.079330   -0.000005
  1    1.077502   -3.876655    0.000001
  1   -1.065967   -2.563477   -0.000012
  1    4.438744   -0.546594   -0.000498
  1    3.603346    0.735478   -0.865268
  1    3.604570    0.758588    0.895672

--link1--
%chk=xx.chk                                                                     
%mem=30GB                                                                       
%nproc=36                                                                       
#B3LYP/aug-cc-pVTZ Geom=(NoDistance,NoAngle)                                    
nmr IOp(2/11=1) Guess=Read                                                      
guess=checkpoint

 Last Z-matrix Geometry from Gaussian output                                    
forward, mode    7, (  7)  3031.7 cm-1

 0 1
  7    1.133227   -0.003152    0.000000
  6    2.283701   -0.699887    0.000000
  6    2.294738   -2.099241    0.000000
  6   -0.021313   -0.679226    0.000000
  6    1.087654   -2.792541    0.000000
  6   -0.101954   -2.069881    0.000000
  6    3.559200    0.098634    0.000000
  1    3.237500   -2.632582    0.000000
  1   -0.927189   -0.079365    0.000000
  1    1.077488   -3.876624    0.000000
  1   -1.065917   -2.563450    0.000000
  1    4.448716   -0.554290    0.000000
  1    3.604395    0.757336   -0.894991
  1    3.604395    0.757336    0.894991

--link1--
%chk=xx.chk                                                                     
%mem=30GB                                                                       
%nproc=36                                                                       
#B3LYP/aug-cc-pVTZ Geom=(NoDistance,NoAngle)                                    
nmr IOp(2/11=1) Guess=Read                                                      
guess=checkpoint

 Last Z-matrix Geometry from Gaussian output                                    
forward, mode    8, (  8)  1627.5 cm-1

 0 1
  7    1.131403   -0.004813    0.000000
  6    2.285100   -0.696314    0.000000
  6    2.291509   -2.104237    0.000000
  6   -0.018877   -0.674644    0.000000
  6    1.090763   -2.790168    0.000000
  6   -0.102415   -2.073546    0.000000
  6    3.559750    0.099312    0.000000
  1    3.241204   -2.625935    0.000000
  1   -0.932018   -0.084619    0.000000
  1    1.073318   -3.873907    0.000000
  1   -1.070260   -2.560406    0.000000
  1    4.439991   -0.544677    0.000000
  1    3.603609    0.745354   -0.881422
  1    3.603609    0.745354    0.881422

--link1--
%chk=xx.chk                                                                     
%mem=30GB                                                                       
%nproc=36                                                                       
#B3LYP/aug-cc-pVTZ Geom=(NoDistance,NoAngle)                                    
nmr IOp(2/11=1) Guess=Read                                                      
guess=checkpoint

 Last Z-matrix Geometry from Gaussian output                                    
forward, mode    9, (  9)  1606.4 cm-1

 0 1
  7    1.136379   -0.003836    0.000000
  6    2.280961   -0.696555    0.000000
  6    2.296896   -2.100780    0.000000
  6   -0.023561   -0.678579    0.000000
  6    1.081557   -2.790846    0.000000
  6   -0.097817   -2.073796    0.000000
  6    3.560225    0.099392    0.000000
  1    3.241775   -2.631753    0.000000
  1   -0.928110   -0.076539    0.000000
  1    1.086074   -3.874853    0.000000
  1   -1.066806   -2.556992    0.000000
  1    4.440831   -0.544216    0.000000
  1    3.603334    0.745300   -0.881534
  1    3.603334    0.745300    0.881534

--link1--
%chk=xx.chk                                                                     
%mem=30GB                                                                       
%nproc=36                                                                       
#B3LYP/aug-cc-pVTZ Geom=(NoDistance,NoAngle)                                    
nmr IOp(2/11=1) Guess=Read                                                      
guess=checkpoint

 Last Z-matrix Geometry from Gaussian output                                    
forward, mode   10, ( 10)  1503.3 cm-1

 0 1
  7    1.131152   -0.001120    0.000000
  6    2.288550   -0.700380    0.000000
  6    2.292225   -2.102429    0.000000
  6   -0.023566   -0.683151    0.000000
  6    1.087080   -2.790929    0.000000
  6   -0.099886   -2.069190    0.000000
  6    3.559483    0.099382    0.000000
  1    3.244156   -2.620312    0.000000
  1   -0.916383   -0.064016    0.000000
  1    1.082961   -3.874682    0.000000
  1   -1.065883   -2.557850    0.000000
  1    4.434720   -0.551249    0.000000
  1    3.603257    0.751252   -0.877172
  1    3.603257    0.751252    0.877172

--link1--
%chk=xx.chk                                                                     
%mem=30GB                                                                       
%nproc=36                                                                       
#B3LYP/aug-cc-pVTZ Geom=(NoDistance,NoAngle)                                    
nmr IOp(2/11=1) Guess=Read                                                      
guess=checkpoint

 Last Z-matrix Geometry from Gaussian output                                    
forward, mode   11, ( 11)  1484.6 cm-1

 0 1
  7    1.135066   -0.002997    0.000000
  6    2.282139   -0.702352    0.000000
  6    2.294303   -2.097900    0.000000
  6   -0.022338   -0.677676    0.000000
  6    1.089000   -2.791534    0.000000
  6   -0.101288   -2.073179    0.000000
  6    3.562246    0.099579    0.000000
  1    3.235560   -2.634047    0.000000
  1   -0.930713   -0.080964    0.000000
  1    1.069732   -3.875412    0.000000
  1   -1.071049   -2.555990    0.000000
  1    4.429455   -0.561320    0.000000
  1    3.598305    0.762461   -0.869747
  1    3.598305    0.762461    0.869747

--link1--
%chk=xx.chk                                                                     
%mem=30GB                                                                       
%nproc=36                                                                       
#B3LYP/aug-cc-pVTZ Geom=(NoDistance,NoAngle)                                    
nmr IOp(2/11=1) Guess=Read                                                      
guess=checkpoint

 Last Z-matrix Geometry from Gaussian output                                    
forward, mode   12, ( 12)  1469.3 cm-1

 0 1
  7    1.133214   -0.003153    0.000134
  6    2.283669   -0.699904   -0.000859
  6    2.294717   -2.099234    0.000059
  6   -0.021296   -0.679219    0.000022
  6    1.087651   -2.792532   -0.000004
  6   -0.101947   -2.069886    0.000002
  6    3.560141    0.099736   -0.002134
  1    3.237777   -2.632749    0.000237
  1   -0.927219   -0.079330   -0.000197
  1    1.077502   -3.876655   -0.000164
  1   -1.065967   -2.563477    0.000073
  1    4.438744   -0.546594    0.028977
  1    3.585080    0.752727   -0.878517
  1    3.622836    0.741339    0.882423

--link1--
%chk=xx.chk                                                                     
%mem=30GB                                                                       
%nproc=36                                                                       
#B3LYP/aug-cc-pVTZ Geom=(NoDistance,NoAngle)                                    
nmr IOp(2/11=1) Guess=Read                                                      
guess=checkpoint

 Last Z-matrix Geometry from Gaussian output                                    
forward, mode   13, ( 13)  1451.5 cm-1

 0 1
  7    1.131575   -0.004551    0.000000
  6    2.283885   -0.697140    0.000000
  6    2.296032   -2.101402    0.000000
  6   -0.018234   -0.678391    0.000000
  6    1.084360   -2.793653    0.000000
  6   -0.103199   -2.066351    0.000000
  6    3.561203    0.098500    0.000000
  1    3.242493   -2.629871    0.000000
  1   -0.930368   -0.088123    0.000000
  1    1.092671   -3.878216    0.000000
  1   -1.057888   -2.577873    0.000000
  1    4.434525   -0.554158    0.000000
  1    3.598426    0.755979   -0.873597
  1    3.598426    0.755979    0.873597

--link1--
%chk=xx.chk                                                                     
%mem=30GB                                                                       
%nproc=36                                                                       
#B3LYP/aug-cc-pVTZ Geom=(NoDistance,NoAngle)                                    
nmr IOp(2/11=1) Guess=Read                                                      
guess=checkpoint

 Last Z-matrix Geometry from Gaussian output                                    
forward, mode   14, ( 14)  1405.8 cm-1

 0 1
  7    1.133824   -0.003278    0.000000
  6    2.284526   -0.699291    0.000000
  6    2.294861   -2.098802    0.000000
  6   -0.021804   -0.679046    0.000000
  6    1.087555   -2.792907    0.000000
  6   -0.101951   -2.069925    0.000000
  6    3.555825    0.096257    0.000000
  1    3.236785   -2.634278    0.000000
  1   -0.929292   -0.081439    0.000000
  1    1.076309   -3.877045    0.000000
  1   -1.066082   -2.563390    0.000000
  1    4.448382   -0.531477    0.000000
  1    3.620438    0.758245   -0.869454
  1    3.620438    0.758245    0.869454

--link1--
%chk=xx.chk                                                                     
%mem=30GB                                                                       
%nproc=36                                                                       
#B3LYP/aug-cc-pVTZ Geom=(NoDistance,NoAngle)                                    
nmr IOp(2/11=1) Guess=Read                                                      
guess=checkpoint

 Last Z-matrix Geometry from Gaussian output                                    
forward, mode   15, ( 15)  1321.6 cm-1

 0 1
  7    1.130103   -0.004523    0.000000
  6    2.280952   -0.695703    0.000000
  6    2.296258   -2.099591    0.000000
  6   -0.018804   -0.679386    0.000000
  6    1.088796   -2.793356    0.000000
  6   -0.101739   -2.070541    0.000000
  6    3.561247    0.098135    0.000000
  1    3.230116   -2.649801    0.000000
  1   -0.909956   -0.057724    0.000000
  1    1.070977   -3.877558    0.000000
  1   -1.066202   -2.563188    0.000000
  1    4.442133   -0.544631    0.000000
  1    3.599981    0.750053   -0.877563
  1    3.599981    0.750053    0.877563

--link1--
%chk=xx.chk                                                                     
%mem=30GB                                                                       
%nproc=36                                                                       
#B3LYP/aug-cc-pVTZ Geom=(NoDistance,NoAngle)                                    
nmr IOp(2/11=1) Guess=Read                                                      
guess=checkpoint

 Last Z-matrix Geometry from Gaussian output                                    
forward, mode   16, ( 16)  1280.8 cm-1

 0 1
  7    1.127431   -0.003140    0.000000
  6    2.284848   -0.705817    0.000000
  6    2.296161   -2.096663    0.000000
  6   -0.017312   -0.675137    0.000000
  6    1.084217   -2.791674    0.000000
  6   -0.100163   -2.073175    0.000000
  6    3.560077    0.100989    0.000000
  1    3.237084   -2.633775    0.000000
  1   -0.924409   -0.076443    0.000000
  1    1.088200   -3.875840    0.000000
  1   -1.067463   -2.560230    0.000000
  1    4.438113   -0.546610    0.000000
  1    3.609659    0.746595   -0.881480
  1    3.609659    0.746595    0.881480

--link1--
%chk=xx.chk                                                                     
%mem=30GB                                                                       
%nproc=36                                                                       
#B3LYP/aug-cc-pVTZ Geom=(NoDistance,NoAngle)                                    
nmr IOp(2/11=1) Guess=Read                                                      
guess=checkpoint

 Last Z-matrix Geometry from Gaussian output                                    
forward, mode   17, ( 17)  1252.2 cm-1

 0 1
  7    1.134734   -0.003182    0.000000
  6    2.275511   -0.703394    0.000000
  6    2.292669   -2.101845    0.000000
  6   -0.019015   -0.680531    0.000000
  6    1.089635   -2.789647    0.000000
  6   -0.103370   -2.069164    0.000000
  6    3.562306    0.101479    0.000000
  1    3.243675   -2.620470    0.000000
  1   -0.919612   -0.073283    0.000000
  1    1.085160   -3.873570    0.000000
  1   -1.063723   -2.569655    0.000000
  1    4.443721   -0.541631    0.000000
  1    3.610157    0.749424   -0.879950
  1    3.610157    0.749424    0.879950

--link1--
%chk=xx.chk                                                                     
%mem=30GB                                                                       
%nproc=36                                                                       
#B3LYP/aug-cc-pVTZ Geom=(NoDistance,NoAngle)                                    
nmr IOp(2/11=1) Guess=Read                                                      
guess=checkpoint

 Last Z-matrix Geometry from Gaussian output                                    
forward, mode   18, ( 18)  1171.0 cm-1

 0 1
  7    1.133000   -0.002942    0.000000
  6    2.283101   -0.699849    0.000000
  6    2.293434   -2.101054    0.000000
  6   -0.022435   -0.680040    0.000000
  6    1.090909   -2.792172    0.000000
  6   -0.102767   -2.067873    0.000000
  6    3.560476    0.099791    0.000000
  1    3.227831   -2.649841    0.000000
  1   -0.931540   -0.084909    0.000000
  1    1.107432   -3.876503    0.000000
  1   -1.076072   -2.543355    0.000000
  1    4.439498   -0.545961    0.000000
  1    3.603581    0.747380   -0.880306
  1    3.603581    0.747380    0.880306

--link1--
%chk=xx.chk                                                                     
%mem=30GB                                                                       
%nproc=36                                                                       
#B3LYP/aug-cc-pVTZ Geom=(NoDistance,NoAngle)                                    
nmr IOp(2/11=1) Guess=Read                                                      
guess=checkpoint

 Last Z-matrix Geometry from Gaussian output                                    
forward, mode   19, ( 19)  1123.2 cm-1

 0 1
  7    1.130635   -0.004694    0.000000
  6    2.282154   -0.699338    0.000000
  6    2.298859   -2.098211    0.000000
  6   -0.018838   -0.682050    0.000000
  6    1.086597   -2.793744    0.000000
  6   -0.103539   -2.067325    0.000000
  6    3.561744    0.098217    0.000000
  1    3.250195   -2.617437    0.000000
  1   -0.927993   -0.087205    0.000000
  1    1.068181   -3.877991    0.000000
  1   -1.079214   -2.538023    0.000000
  1    4.445313   -0.541194    0.000000
  1    3.599989    0.747664   -0.879263
  1    3.599989    0.747664    0.879263

--link1--
%chk=xx.chk                                                                     
%mem=30GB                                                                       
%nproc=36                                                                       
#B3LYP/aug-cc-pVTZ Geom=(NoDistance,NoAngle)                                    
nmr IOp(2/11=1) Guess=Read                                                      
guess=checkpoint

 Last Z-matrix Geometry from Gaussian output                                    
forward, mode   20, ( 20)  1068.4 cm-1

 0 1
  7    1.135539   -0.004785    0.000000
  6    2.284296   -0.699327    0.000000
  6    2.295966   -2.097024    0.000000
  6   -0.024109   -0.673950    0.000000
  6    1.089724   -2.798755    0.000000
  6   -0.106590   -2.071428    0.000000
  6    3.559345    0.099447    0.000000
  1    3.246093   -2.618318    0.000000
  1   -0.922321   -0.061891    0.000000
  1    1.091563   -3.883471    0.000000
  1   -1.072189   -2.563245    0.000000
  1    4.437127   -0.547958    0.000000
  1    3.603699    0.746397   -0.880653
  1    3.603699    0.746397    0.880653

--link1--
%chk=xx.chk                                                                     
%mem=30GB                                                                       
%nproc=36                                                                       
#B3LYP/aug-cc-pVTZ Geom=(NoDistance,NoAngle)                                    
nmr IOp(2/11=1) Guess=Read                                                      
guess=checkpoint

 Last Z-matrix Geometry from Gaussian output                                    
forward, mode   21, ( 21)  1060.0 cm-1

 0 1
  7    1.133214   -0.003153   -0.000811
  6    2.283669   -0.699904    0.006219
  6    2.294717   -2.099234   -0.002057
  6   -0.021296   -0.679219   -0.000841
  6    1.087651   -2.792532   -0.000066
  6   -0.101947   -2.069886    0.000496
  6    3.560141    0.099736   -0.005970
  1    3.237777   -2.632749    0.006201
  1   -0.927219   -0.079330    0.006253
  1    1.077502   -3.876655    0.002368
  1   -1.065967   -2.563477   -0.002974
  1    4.438744   -0.546594    0.012806
  1    3.621214    0.762002   -0.873960
  1    3.586702    0.732064    0.886980

--link1--
%chk=xx.chk                                                                     
%mem=30GB                                                                       
%nproc=36                                                                       
#B3LYP/aug-cc-pVTZ Geom=(NoDistance,NoAngle)                                    
nmr IOp(2/11=1) Guess=Read                                                      
guess=checkpoint

 Last Z-matrix Geometry from Gaussian output                                    
forward, mode   22, ( 22)  1019.8 cm-1

 0 1
  7    1.133214   -0.003153   -0.000340
  6    2.283669   -0.699904    0.000073
  6    2.294717   -2.099234    0.003007
  6   -0.021296   -0.679219   -0.001492
  6    1.087651   -2.792532   -0.005360
  6   -0.101947   -2.069886    0.003697
  6    3.560141    0.099736    0.000238
  1    3.237777   -2.632749   -0.017708
  1   -0.927219   -0.079330    0.010228
  1    1.077502   -3.876655    0.031021
  1   -1.065967   -2.563477   -0.020213
  1    4.438744   -0.546594   -0.000186
  1    3.603164    0.746527   -0.880652
  1    3.604752    0.747539    0.880288

--link1--
%chk=xx.chk                                                                     
%mem=30GB                                                                       
%nproc=36                                                                       
#B3LYP/aug-cc-pVTZ Geom=(NoDistance,NoAngle)                                    
nmr IOp(2/11=1) Guess=Read                                                      
guess=checkpoint

 Last Z-matrix Geometry from Gaussian output                                    
forward, mode   23, ( 23)  1018.2 cm-1

 0 1
  7    1.132607   -0.008459    0.000000
  6    2.283714   -0.700828    0.000000
  6    2.288331   -2.094684    0.000000
  6   -0.022915   -0.677754    0.000000
  6    1.088106   -2.793256    0.000000
  6   -0.096224   -2.067482    0.000000
  6    3.562894    0.097382    0.000000
  1    3.232754   -2.624973    0.000000
  1   -0.929261   -0.078529    0.000000
  1    1.080775   -3.877132    0.000000
  1   -1.058961   -2.563017    0.000000
  1    4.451268   -0.535374    0.000000
  1    3.594524    0.747704   -0.878928
  1    3.594524    0.747704    0.878928

--link1--
%chk=xx.chk                                                                     
%mem=30GB                                                                       
%nproc=36                                                                       
#B3LYP/aug-cc-pVTZ Geom=(NoDistance,NoAngle)                                    
nmr IOp(2/11=1) Guess=Read                                                      
guess=checkpoint

 Last Z-matrix Geometry from Gaussian output                                    
forward, mode   24, ( 24)   993.9 cm-1

 0 1
  7    1.132425    0.003270    0.000000
  6    2.284837   -0.701966    0.000000
  6    2.296697   -2.099815    0.000000
  6   -0.023157   -0.678804    0.000000
  6    1.088070   -2.790951    0.000000
  6   -0.105038   -2.073323    0.000000
  6    3.563208    0.095715    0.000000
  1    3.239423   -2.633978    0.000000
  1   -0.930424   -0.080629    0.000000
  1    1.081818   -3.875169    0.000000
  1   -1.066222   -2.572909    0.000000
  1    4.456591   -0.530050    0.000000
  1    3.589254    0.747621   -0.878128
  1    3.589254    0.747621    0.878128

--link1--
%chk=xx.chk                                                                     
%mem=30GB                                                                       
%nproc=36                                                                       
#B3LYP/aug-cc-pVTZ Geom=(NoDistance,NoAngle)                                    
nmr IOp(2/11=1) Guess=Read                                                      
guess=checkpoint

 Last Z-matrix Geometry from Gaussian output                                    
forward, mode   25, ( 25)   980.9 cm-1

 0 1
  7    1.133214   -0.003153    0.000759
  6    2.283669   -0.699904   -0.000284
  6    2.294717   -2.099234   -0.001898
  6   -0.021296   -0.679219   -0.006379
  6    1.087651   -2.792532    0.002688
  6   -0.101947   -2.069886    0.003266
  6    3.560141    0.099736    0.001165
  1    3.237777   -2.632749    0.009002
  1   -0.927219   -0.079330    0.033886
  1    1.077502   -3.876655   -0.016268
  1   -1.065967   -2.563477   -0.014339
  1    4.438744   -0.546594   -0.002699
  1    3.599949    0.743865   -0.881950
  1    3.607967    0.750201    0.878990

--link1--
%chk=xx.chk                                                                     
%mem=30GB                                                                       
%nproc=36                                                                       
#B3LYP/aug-cc-pVTZ Geom=(NoDistance,NoAngle)                                    
nmr IOp(2/11=1) Guess=Read                                                      
guess=checkpoint

 Last Z-matrix Geometry from Gaussian output                                    
forward, mode   26, ( 26)   902.9 cm-1

 0 1
  7    1.133214   -0.003153   -0.000381
  6    2.283669   -0.699904    0.000080
  6    2.294717   -2.099234   -0.005303
  6   -0.021296   -0.679219    0.002808
  6    1.087651   -2.792532   -0.001224
  6   -0.101947   -2.069886    0.003687
  6    3.560141    0.099736    0.000928
  1    3.237777   -2.632749    0.033108
  1   -0.927219   -0.079330   -0.017532