%chk=3nbal.chk                                                                  
%mem=10GB                                                                       
%nproc=36                                                                       
# B3LYP/6-311++G(2d,p) nmr=GIAO                                                 

 Last Z-matrix Geometry from Gaussian output                                    
Zero geometry

 0 1                                                                            
  1    1.879707    2.606348   -0.000000
  1    2.872020   -1.043820    0.000000
  1    1.231634   -2.922321    0.000000
  1   -1.211394   -2.418110    0.000000
  1   -0.368325    1.770828   -0.000000
  8   -2.686489    1.163744   -0.000000
  8   -3.115790   -0.964408    0.000000
  8    3.534431    1.455311   -0.000000
  7   -2.346345   -0.012432   -0.000000
  6   -0.898371   -0.303619    0.000000
  6    1.363219    0.473611   -0.000000
  6   -0.000580    0.753041   -0.000000
  6   -0.476345   -1.625856    0.000000
  6    1.805846   -0.853907    0.000000
  6    0.889681   -1.895157    0.000000
  6    2.335078    1.595384   -0.000000

--link1--
%chk=3nbal.chk                                                                  
%mem=10GB                                                                       
%nproc=36                                                                       
# B3LYP/6-311++G(2d,p) nmr=GIAO                                                 
guess=checkpoint

 Last Z-matrix Geometry from Gaussian output                                    
forward, mode    1, (  1)  3220.6 cm-1

 0 1                                                                            
  1    1.879700    2.606357    0.000000
  1    2.871037   -1.043656    0.000000
  1    1.229971   -2.917581    0.000000
  1   -1.193859   -2.398846    0.000000
  1   -0.368353    1.770904   -0.000000
  8   -2.686484    1.163744   -0.000000
  8   -3.115796   -0.964390    0.000000
  8    3.534431    1.455312    0.000000
  7   -2.346361   -0.012459   -0.000000
  6   -0.898402   -0.303544    0.000000
  6    1.363218    0.473622   -0.000000
  6   -0.000568    0.753045   -0.000000
  6   -0.477885   -1.627551    0.000000
  6    1.805954   -0.853903    0.000000
  6    0.889906   -1.895582    0.000000
  6    2.335078    1.595380   -0.000000

--link1--
%chk=3nbal.chk                                                                  
%mem=10GB                                                                       
%nproc=36                                                                       
# B3LYP/6-311++G(2d,p) nmr=GIAO                                                 
guess=checkpoint

 Last Z-matrix Geometry from Gaussian output                                    
forward, mode    2, (  2)  3202.2 cm-1

 0 1                                                                            
  1    1.879721    2.606524    0.000000
  1    2.871270   -1.043690    0.000000
  1    1.231882   -2.923065    0.000000
  1   -1.211356   -2.418072    0.000000
  1   -0.377208    1.795933    0.000000
  8   -2.686476    1.163758   -0.000000
  8   -3.115794   -0.964406    0.000000
  8    3.534440    1.455315    0.000000
  7   -2.346340   -0.012463    0.000000
  6   -0.898314   -0.303567    0.000000
  6    1.363152    0.473630   -0.000000
  6    0.000172    0.750848    0.000000
  6   -0.476355   -1.625843    0.000000
  6    1.805901   -0.853908    0.000000
  6    0.889661   -1.895091    0.000000
  6    2.335066    1.595363   -0.000000

--link1--
%chk=3nbal.chk                                                                  
%mem=10GB                                                                       
%nproc=36                                                                       
# B3LYP/6-311++G(2d,p) nmr=GIAO                                                 
guess=checkpoint

 Last Z-matrix Geometry from Gaussian output                                    
forward, mode    3, (  3)  3197.7 cm-1

 0 1                                                                            
  1    1.879696    2.606473    0.000000
  1    2.893883   -1.047901    0.000000
  1    1.236035   -2.935803    0.000000
  1   -1.208978   -2.415374    0.000000
  1   -0.368399    1.771008    0.000000
  8   -2.686489    1.163744   -0.000000
  8   -3.115791   -0.964405    0.000000
  8    3.534443    1.455304   -0.000000
  7   -2.346348   -0.012436    0.000000
  6   -0.898368   -0.303619    0.000000
  6    1.363237    0.473559    0.000000
  6   -0.000562    0.753021   -0.000000
  6   -0.476504   -1.626102    0.000000
  6    1.803903   -0.853592    0.000000
  6    0.889358   -1.893922    0.000000
  6    2.335051    1.595382    0.000000

--link1--
%chk=3nbal.chk                                                                  
%mem=10GB                                                                       
%nproc=36                                                                       
# B3LYP/6-311++G(2d,p) nmr=GIAO                                                 
guess=checkpoint

 Last Z-matrix Geometry from Gaussian output                                    
forward, mode    4, (  4)  3184.2 cm-1

 0 1                                                                            
  1    1.879703    2.606401   -0.000000
  1    2.886434   -1.046613    0.000000
  1    1.224631   -2.901432    0.000000
  1   -1.213856   -2.420920    0.000000
  1   -0.368686    1.771829   -0.000000
  8   -2.686488    1.163743   -0.000000
  8   -3.115788   -0.964411    0.000000
  8    3.534436    1.455306    0.000000
  7   -2.346346   -0.012429    0.000000
  6   -0.898364   -0.303612    0.000000
  6    1.363217    0.473592   -0.000000
  6   -0.000545    0.752951    0.000000
  6   -0.476185   -1.625602    0.000000
  6    1.804630   -0.853626    0.000000
  6    0.890315   -1.896954    0.000000
  6    2.335064    1.595385    0.000000

--link1--
%chk=3nbal.chk                                                                  
%mem=10GB                                                                       
%nproc=36                                                                       
# B3LYP/6-311++G(2d,p) nmr=GIAO                                                 
guess=checkpoint

 Last Z-matrix Geometry from Gaussian output                                    
forward, mode    5, (  5)  2904.2 cm-1

 0 1                                                                            
  1    1.868793    2.632218   -0.000000
  1    2.871913   -1.043743    0.000000
  1    1.231607   -2.922306    0.000000
  1   -1.211417   -2.418121    0.000000
  1   -0.368408    1.770620    0.000000
  8   -2.686492    1.163749   -0.000000
  8   -3.115792   -0.964407    0.000000
  8    3.534485    1.455320   -0.000000
  7   -2.346338   -0.012441    0.000000
  6   -0.898387   -0.303623    0.000000
  6    1.363285    0.473621    0.000000
  6   -0.000588    0.753053   -0.000000
  6   -0.476349   -1.625850    0.000000
  6    1.805848   -0.853900    0.000000
  6    0.889690   -1.895159    0.000000
  6    2.335893    1.593183    0.000000

--link1--
%chk=3nbal.chk                                                                  
%mem=10GB                                                                       
%nproc=36                                                                       
# B3LYP/6-311++G(2d,p) nmr=GIAO                                                 
guess=checkpoint

 Last Z-matrix Geometry from Gaussian output                                    
forward, mode    6, (  6)  1771.7 cm-1

 0 1                                                                            
  1    1.876555    2.601504    0.000000
  1    2.872758   -1.043007    0.000000
  1    1.231980   -2.921884    0.000000
  1   -1.211706   -2.418052    0.000000
  1   -0.367734    1.770608    0.000000
  8   -2.686464    1.163765    0.000000
  8   -3.115755   -0.964356    0.000000
  8    3.528867    1.455940    0.000000
  7   -2.346438   -0.012570    0.000000
  6   -0.898186   -0.302966    0.000000
  6    1.362339    0.474521   -0.000000
  6   -0.000904    0.752457   -0.000000
  6   -0.476226   -1.626174    0.000000
  6    1.806064   -0.854729    0.000000
  6    0.889657   -1.894846    0.000000
  6    2.343382    1.594777   -0.000000

--link1--
%chk=3nbal.chk                                                                  
%mem=10GB                                                                       
%nproc=36                                                                       
# B3LYP/6-311++G(2d,p) nmr=GIAO                                                 
guess=checkpoint

 Last Z-matrix Geometry from Gaussian output                                    
forward, mode    7, (  7)  1648.8 cm-1

 0 1                                                                            
  1    1.880308    2.606620   -0.000000
  1    2.872012   -1.037365    0.000000
  1    1.226245   -2.922225    0.000000
  1   -1.214499   -2.418883    0.000000
  1   -0.363090    1.770836   -0.000000
  8   -2.686647    1.164902   -0.000000
  8   -3.115352   -0.963543    0.000000
  8    3.535000    1.455289    0.000000
  7   -2.346766   -0.015384    0.000000
  6   -0.896657   -0.298550    0.000000
  6    1.364760    0.476208    0.000000
  6   -0.003861    0.750323   -0.000000
  6   -0.476845   -1.628474    0.000000
  6    1.804007   -0.858316    0.000000
  6    0.892707   -1.892496    0.000000
  6    2.333998    1.595070   -0.000000

--link1--
%chk=3nbal.chk                                                                  
%mem=10GB                                                                       
%nproc=36                                                                       
# B3LYP/6-311++G(2d,p) nmr=GIAO                                                 
guess=checkpoint

 Last Z-matrix Geometry from Gaussian output                                    
forward, mode    8, (  8)  1619.3 cm-1

 0 1                                                                            
  1    1.876881    2.605338   -0.000000
  1    2.874527   -1.042555    0.000000
  1    1.234510   -2.919110    0.000000
  1   -1.216865   -2.412562    0.000000
  1   -0.373827    1.766949   -0.000000
  8   -2.686423    1.163965   -0.000000
  8   -3.115185   -0.963631    0.000000
  8    3.535349    1.455292    0.000000
  7   -2.347196   -0.013824    0.000000
  6   -0.900759   -0.301312    0.000000
  6    1.358781    0.475984   -0.000000
  6    0.004067    0.752881    0.000000
  6   -0.471907   -1.629290    0.000000
  6    1.807568   -0.855704    0.000000
  6    0.885852   -1.894436    0.000000
  6    2.334508    1.595264    0.000000

--link1--
%chk=3nbal.chk                                                                  
%mem=10GB                                                                       
%nproc=36                                                                       
# B3LYP/6-311++G(2d,p) nmr=GIAO                                                 
guess=checkpoint

 Last Z-matrix Geometry from Gaussian output                                    
forward, mode    9, (  9)  1575.7 cm-1

 0 1                                                                            
  1    1.879216    2.606082   -0.000000
  1    2.873186   -1.037902    0.000000
  1    1.231706   -2.920545    0.000000
  1   -1.213303   -2.416156    0.000000
  1   -0.366764    1.771320    0.000000
  8   -2.685597    1.160257    0.000000
  8   -3.117954   -0.967260    0.000000
  8    3.534650    1.455304    0.000000
  7   -2.344790   -0.004720    0.000000
  6   -0.898568   -0.303257    0.000000
  6    1.363571    0.475576    0.000000
  6   -0.001445    0.752525   -0.000000
  6   -0.475018   -1.627039    0.000000
  6    1.805312   -0.857126    0.000000
  6    0.889568   -1.893693    0.000000
  6    2.334665    1.595144   -0.000000

--link1--
%chk=3nbal.chk                                                                  
%mem=10GB                                                                       
%nproc=36                                                                       
# B3LYP/6-311++G(2d,p) nmr=GIAO                                                 
guess=checkpoint

 Last Z-matrix Geometry from Gaussian output                                    
forward, mode   10, ( 10)  1510.8 cm-1

 0 1                                                                            
  1    1.877655    2.604906    0.000000
  1    2.876531   -1.034495    0.000000
  1    1.248460   -2.916470    0.000000
  1   -1.204292   -2.420432    0.000000
  1   -0.357685    1.774839    0.000000
  8   -2.686895    1.164730    0.000000
  8   -3.115478   -0.963998    0.000000
  8    3.534739    1.455297    0.000000
  7   -2.346455   -0.013672   -0.000000
  6   -0.896680   -0.306445    0.000000
  6    1.364317    0.477357    0.000000
  6   -0.003288    0.752334   -0.000000
  6   -0.475889   -1.622781    0.000000
  6    1.807655   -0.856590    0.000000
  6    0.884672   -1.896633    0.000000
  6    2.334474    1.594565   -0.000000

--link1--
%chk=3nbal.chk                                                                  
%mem=10GB                                                                       
%nproc=36                                                                       
# B3LYP/6-311++G(2d,p) nmr=GIAO                                                 
guess=checkpoint

 Last Z-matrix Geometry from Gaussian output                                    
forward, mode   11, ( 11)  1468.9 cm-1

 0 1                                                                            
  1    1.893443    2.611206   -0.000000
  1    2.872375   -1.031723    0.000000
  1    1.229048   -2.920299    0.000000
  1   -1.220323   -2.407914    0.000000
  1   -0.371811    1.773184   -0.000000
  8   -2.686766    1.164408   -0.000000
  8   -3.114931   -0.963610    0.000000
  8    3.532783    1.455842   -0.000000
  7   -2.346554   -0.013554    0.000000
  6   -0.901637   -0.307705    0.000000
  6    1.367990    0.471839    0.000000
  6   -0.000748    0.756126    0.000000
  6   -0.473380   -1.626652    0.000000
  6    1.803797   -0.855789    0.000000
  6    0.889210   -1.892914    0.000000
  6    2.335037    1.594598    0.000000

--link1--
%chk=3nbal.chk                                                                  
%mem=10GB                                                                       
%nproc=36                                                                       
# B3LYP/6-311++G(2d,p) nmr=GIAO                                                 
guess=checkpoint

 Last Z-matrix Geometry from Gaussian output                                    
forward, mode   12, ( 12)  1412.0 cm-1

 0 1                                                                            
  1    1.911726    2.617001   -0.000000
  1    2.872198   -1.049027    0.000000
  1    1.236237   -2.922153    0.000000
  1   -1.207163   -2.422550    0.000000
  1   -0.369475    1.768431    0.000000
  8   -2.686307    1.163404    0.000000
  8   -3.116348   -0.964844    0.000000
  8    3.532575    1.456994   -0.000000
  7   -2.346069   -0.011979   -0.000000
  6   -0.897430   -0.300357    0.000000
  6    1.362698    0.474210    0.000000
  6   -0.000538    0.751377    0.000000
  6   -0.476518   -1.626238    0.000000
  6    1.807124   -0.852494    0.000000
  6    0.888237   -1.896812    0.000000
  6    2.334258    1.592175    0.000000

--link1--
%chk=3nbal.chk                                                                  
%mem=10GB                                                                       
%nproc=36                                                                       
# B3LYP/6-311++G(2d,p) nmr=GIAO                                                 
guess=checkpoint

 Last Z-matrix Geometry from Gaussian output                                    
forward, mode   13, ( 13)  1370.1 cm-1

 0 1                                                                            
  1    1.878389    2.605650    0.000000
  1    2.872067   -1.044245    0.000000
  1    1.232491   -2.922091    0.000000
  1   -1.212253   -2.417165    0.000000
  1   -0.369737    1.770161    0.000000
  8   -2.688751    1.168353   -0.000000
  8   -3.119657   -0.967762    0.000000
  8    3.534475    1.455291    0.000000
  7   -2.338329   -0.014085    0.000000
  6   -0.900051   -0.303204    0.000000
  6    1.363180    0.473725   -0.000000
  6   -0.000263    0.753025    0.000000
  6   -0.476116   -1.625954    0.000000
  6    1.805949   -0.853873    0.000000
  6    0.889657   -1.895238    0.000000
  6    2.335156    1.595350    0.000000

--link1--
%chk=3nbal.chk                                                                  
%mem=10GB                                                                       
%nproc=36                                                                       
# B3LYP/6-311++G(2d,p) nmr=GIAO                                                 
guess=checkpoint

 Last Z-matrix Geometry from Gaussian output                                    
forward, mode   14, ( 14)  1354.0 cm-1

 0 1                                                                            
  1    1.873413    2.604868   -0.000000
  1    2.871236   -1.049598    0.000000
  1    1.233871   -2.921311    0.000000
  1   -1.217967   -2.411535    0.000000
  1   -0.361735    1.773959    0.000000
  8   -2.686203    1.163388    0.000000
  8   -3.116071   -0.964535    0.000000
  8    3.534454    1.454711   -0.000000
  7   -2.346321   -0.012074    0.000000
  6   -0.897906   -0.300082    0.000000
  6    1.366805    0.470276   -0.000000
  6   -0.005649    0.751970   -0.000000
  6   -0.472250   -1.629072    0.000000
  6    1.806924   -0.849242    0.000000
  6    0.885502   -1.896312    0.000000
  6    2.335442    1.596695   -0.000000

--link1--
%chk=3nbal.chk                                                                  
%mem=10GB                                                                       
%nproc=36                                                                       
# B3LYP/6-311++G(2d,p) nmr=GIAO                                                 
guess=checkpoint

 Last Z-matrix Geometry from Gaussian output                                    
forward, mode   15, ( 15)  1314.8 cm-1

 0 1                                                                            
  1    1.882487    2.605440    0.000000
  1    2.870055   -1.059843    0.000000
  1    1.214534   -2.928621    0.000000
  1   -1.220021   -2.409143    0.000000
  1   -0.348446    1.777579    0.000000
  8   -2.686842    1.164186    0.000000
  8   -3.115516   -0.964287    0.000000
  8    3.534407    1.455814    0.000000
  7   -2.346267   -0.012389    0.000000
  6   -0.898738   -0.307516    0.000000
  6    1.361710    0.478742   -0.000000
  6   -0.001324    0.752524    0.000000
  6   -0.474862   -1.626122    0.000000
  6    1.807053   -0.852569    0.000000
  6    0.890576   -1.895405    0.000000
  6    2.334582    1.593004   -0.000000

--link1--
%chk=3nbal.chk                                                                  
%mem=10GB                                                                       
%nproc=36                                                                       
# B3LYP/6-311++G(2d,p) nmr=GIAO                                                 
guess=checkpoint

 Last Z-matrix Geometry from Gaussian output                                    
forward, mode   16, ( 16)  1218.0 cm-1

 0 1                                                                            
  1    1.887789    2.612881   -0.000000
  1    2.872123   -1.041113    0.000000
  1    1.233925   -2.917194    0.000000
  1   -1.216537   -2.412853    0.000000
  1   -0.354666    1.775024   -0.000000
  8   -2.686941    1.164936   -0.000000
  8   -3.116334   -0.965195    0.000000
  8    3.535115    1.455426    0.000000
  7   -2.346581   -0.012319   -0.000000
  6   -0.893141   -0.305587    0.000000
  6    1.356969    0.467798   -0.000000
  6   -0.000938    0.752554    0.000000
  6   -0.475911   -1.625974    0.000000
  6    1.805403   -0.855360    0.000000
  6    0.889223   -1.891274    0.000000
  6    2.336020    1.598515   -0.000000

--link1--
%chk=3nbal.chk                                                                  
%mem=10GB                                                                       
%nproc=36                                                                       
# B3LYP/6-311++G(2d,p) nmr=GIAO                                                 
guess=checkpoint

 Last Z-matrix Geometry from Gaussian output                                    
forward, mode   17, ( 17)  1186.1 cm-1

 0 1                                                                            
  1    1.879507    2.606082    0.000000
  1    2.867505   -1.066170    0.000000
  1    1.259822   -2.913289    0.000000
  1   -1.225904   -2.405294    0.000000
  1   -0.372458    1.769581    0.000000
  8   -2.686367    1.163328   -0.000000
  8   -3.115312   -0.964016    0.000000
  8    3.534530    1.455331   -0.000000
  7   -2.346363   -0.012384    0.000000
  6   -0.900026   -0.303608    0.000000
  6    1.363392    0.474136    0.000000
  6   -0.001792    0.752804   -0.000000
  6   -0.477791   -1.624834    0.000000
  6    1.805238   -0.855722    0.000000
  6    0.893210   -1.894326    0.000000
  6    2.334981    1.595166    0.000000

--link1--
%chk=3nbal.chk                                                                  
%mem=10GB                                                                       
%nproc=36                                                                       
# B3LYP/6-311++G(2d,p) nmr=GIAO                                                 
guess=checkpoint

 Last Z-matrix Geometry from Gaussian output                                    
forward, mode   18, ( 18)  1107.5 cm-1

 0 1                                                                            
  1    1.880707    2.608304   -0.000000
  1    2.866675   -1.057670    0.000000
  1    1.236529   -2.918554    0.000000
  1   -1.191164   -2.436782    0.000000
  1   -0.350959    1.780073   -0.000000
  8   -2.686518    1.162763    0.000000
  8   -3.115234   -0.963272    0.000000
  8    3.534240    1.455097   -0.000000
  7   -2.345346   -0.012701   -0.000000
  6   -0.903381   -0.302852    0.000000
  6    1.363173    0.472343    0.000000
  6   -0.000077    0.756056    0.000000
  6   -0.474115   -1.628034    0.000000
  6    1.802925   -0.855868    0.000000
  6    0.889800   -1.893153    0.000000
  6    2.335385    1.596870    0.000000

--link1--
%chk=3nbal.chk                                                                  
%mem=10GB                                                                       
%nproc=36                                                                       
# B3LYP/6-311++G(2d,p) nmr=GIAO                                                 
guess=checkpoint

 Last Z-matrix Geometry from Gaussian output                                    
forward, mode   19, ( 19)  1100.9 cm-1

 0 1                                                                            
  1    1.880968    2.607288   -0.000000
  1    2.876145   -1.022531    0.000000
  1    1.240916   -2.923959    0.000000
  1   -1.221663   -2.413926    0.000000
  1   -0.346406    1.776485   -0.000000
  8   -2.686255    1.162137    0.000000
  8   -3.115289   -0.963485    0.000000
  8    3.534646    1.455376    0.000000
  7   -2.345299   -0.012461   -0.000000
  6   -0.903441   -0.301741    0.000000
  6    1.361951    0.472748    0.000000
  6    0.001693    0.751744   -0.000000
  6   -0.480288   -1.626944    0.000000
  6    1.806381   -0.851121    0.000000
  6    0.892190   -1.898709    0.000000
  6    2.335344    1.595823   -0.000000

--link1--
%chk=3nbal.chk                                                                  
%mem=10GB                                                                       
%nproc=36                                                                       
# B3LYP/6-311++G(2d,p) nmr=GIAO                                                 
guess=checkpoint

 Last Z-matrix Geometry from Gaussian output                                    
forward, mode   20, ( 20)  1031.5 cm-1

 0 1                                                                            
  1    1.879707    2.606348    0.031111
  1    2.872020   -1.043820    0.014075
  1    1.231634   -2.922321   -0.006040
  1   -1.211394   -2.418110   -0.000424
  1   -0.368325    1.770828    0.007857
  8   -2.686489    1.163744    0.000002
  8   -3.115790   -0.964408    0.000008
  8    3.534431    1.455311    0.001878
  7   -2.346345   -0.012432   -0.000051
  6   -0.898371   -0.303619    0.000078
  6    1.363219    0.473611    0.004283
  6   -0.000580    0.753041   -0.001535
  6   -0.476345   -1.625856    0.000174
  6    1.805846   -0.853907   -0.002582
  6    0.889681   -1.895157    0.001116
  6    2.335078    1.595384   -0.007901

--link1--
%chk=3nbal.chk                                                                  
%mem=10GB                                                                       
%nproc=36                                                                       
# B3LYP/6-311++G(2d,p) nmr=GIAO                                                 
guess=checkpoint

 Last Z-matrix Geometry from Gaussian output                                    
forward, mode   21, ( 21)  1020.2 cm-1

 0 1                                                                            
  1    1.880220    2.606319   -0.000000
  1    2.880013   -1.046035    0.000000
  1    1.230899   -2.922052    0.000000
  1   -1.216597   -2.424354    0.000000
  1   -0.372143    1.778228    0.000000
  8   -2.686362    1.163953   -0.000000
  8   -3.115731   -0.964634    0.000000
  8    3.534403    1.455366    0.000000
  7   -2.346289   -0.012444   -0.000000
  6   -0.897732   -0.303862    0.000000
  6    1.362978    0.473584   -0.000000
  6   -0.003211    0.760512   -0.000000
  6   -0.481560   -1.631605    0.000000
  6    1.813552   -0.855692    0.000000
  6    0.889453   -1.894426    0.000000
  6    2.334876    1.595019    0.000000

--link1--
%chk=3nbal.chk                                                                  
%mem=10GB                                                                       
%nproc=36                                                                       
# B3LYP/6-311++G(2d,p) nmr=GIAO                                                 
guess=checkpoint

 Last Z-matrix Geometry from Gaussian output                                    
forward, mode   22, ( 22)  1008.9 cm-1

 0 1                                                                            
  1    1.879707    2.606348    0.009651
  1    2.872020   -1.043820   -0.022870
  1    1.231634   -2.922321    0.028398
  1   -1.211394   -2.418110   -0.016860
  1   -0.368325    1.770828    0.007399
  8   -2.686489    1.163744   -0.000034
  8   -3.115790   -0.964408   -0.000005
  8    3.534431    1.455311    0.000595
  7   -2.346345   -0.012432    0.000135
  6   -0.898371   -0.303619    0.000073
  6    1.363219    0.473611    0.000908
  6   -0.000580    0.753041   -0.001710
  6   -0.476345   -1.625856    0.002838
  6    1.805846   -0.853907    0.003884
  6    0.889681   -1.895157   -0.005098
  6    2.335078    1.595384   -0.002274

--link1--
%chk=3nbal.chk                                                                  
%mem=10GB                                                                       
%nproc=36                                                                       
# B3LYP/6-311++G(2d,p) nmr=GIAO                                                 
guess=checkpoint

 Last Z-matrix Geometry from Gaussian output                                    
forward, mode   23, ( 23)   970.7 cm-1

 0 1                                                                            
  1    1.879707    2.606348    0.005432
  1    2.872020   -1.043820   -0.023346
  1    1.231634   -2.922321   -0.006173
  1   -1.211394   -2.418110    0.031480
  1   -0.368325    1.770828    0.013349
  8   -2.686489    1.163744    0.000323
  8   -3.115790   -0.964408    0.000315
  8    3.534431    1.455311    0.000330
  7   -2.346345   -0.012432   -0.001552
  6   -0.898371   -0.303619    0.002638
  6    1.363219    0.473611   -0.000182
  6   -0.000580    0.753041   -0.002238
  6   -0.476345   -1.625856   -0.005474
  6    1.805846   -0.853907    0.004157
  6    0.889681   -1.895157    0.001056
  6    2.335078    1.595384   -0.001178

--link1--
%chk=3nbal.chk                                                                  
%mem=10GB                                                                       
%nproc=36                                                                       
# B3LYP/6-311++G(2d,p) nmr=GIAO                                                 
guess=checkpoint

 Last Z-matrix Geometry from Gaussian output                                    
forward, mode   24, ( 24)   930.6 cm-1

 0 1                                                                            
  1    1.879707    2.606348   -0.013485
  1    2.872020   -1.043820    0.009916
  1    1.231634   -2.922321   -0.003290
  1   -1.211394   -2.418110   -0.009479
  1   -0.368325    1.770828    0.038477
  8   -2.686489    1.163744    0.000344
  8   -3.115790   -0.964408    0.000368
  8    3.534431    1.455311   -0.000803
  7   -2.346345   -0.012432   -0.001611
  6   -0.898371   -0.303619    0.002427
  6    1.363219    0.473611    0.001003
  6   -0.000580    0.753041   -0.006590
  6   -0.476345   -1.625856    0.001590
  6    1.805846   -0.853907   -0.001614
  6    0.889681   -1.895157    0.000582
  6    2.335078    1.595384    0.002743

--link1--
%chk=3nbal.chk                                                                  
%mem=10GB                                                                       