%nproc=36                                                                       
%mem=8GB                                                                        
%chk=sragora.chk                                                                
#b3lyp/6-311++G** scrf=(cpcm,Solvent=Water) nosymm p freq=(roa,savenm)                        
iop(2/11=1)                                                                     
                                                                                
 Last Z-matrix Geometry from Gaussian output                                    
                                                                                
-1 1                                                                            
Co      20.00692361    19.96109549    20.56763705
 O      17.06300959    17.48585579    19.89192377
 C      18.11566298    18.12293653    19.97135286
 O      18.19901893    19.32939358    20.42828900
 C      19.44732942    17.51387347    19.50660874
 N      20.31532320    18.66573167    19.14383876
 C      19.93176975    19.25432667    17.81917736
 H      20.45680053    18.73989865    17.01282953
 H      18.86179362    19.09769029    17.67952769
 C      20.25060730    20.73241134    17.84141451
 N      19.78652994    21.29761475    19.15101329
 C      20.64376928    22.43024805    19.58523557
 C      21.96490539    21.75630689    20.00245607
 O      23.06041954    22.27107048    19.75087582
 O      21.81870520    20.61085487    20.57591419
 C      19.97110273    23.22680114    20.70709984
 C      19.57578788    22.46590000    21.97117285
 O      19.24757028    23.14313715    22.97891283
 O      19.56938714    21.19417811    21.99330831
 H      20.62204720    24.05384964    20.99596700
 H      19.05889295    23.68886085    20.31369094
 H      20.83688719    23.10484930    18.74880601
 H      18.81172177    21.58348488    19.07820101
 H      19.77577166    21.26075432    17.01369228
 H      21.32698767    20.89196523    17.76666066
 H      21.29778126    18.38726310    19.12643360
 H      19.26378588    16.88721766    18.63099401
 C      20.09648726    16.67000106    20.59962923
 C      20.39279073    17.39445018    21.91136753
 O      20.67674542    16.69649827    22.89596594
 O      20.34486441    18.67817347    21.97041734
 H      19.45339946    15.81778510    20.82598508
 H      21.03777948    16.25116477    20.22737796
 O      19.21838496    21.25285087    25.28714511
 H      19.18965220    21.83949609    26.04954530
 H      19.18723983    21.83599711    24.50985421
 O      15.91096716    22.48394996    22.18822355
 H      15.17031484    22.91223259    22.63833074
 H      16.65536450    22.63969080    22.79064517
 O      25.22672507    23.06719159    17.75125405
 H      25.09720754    22.53166256    16.96128356
 H      24.45988212    22.86972853    18.30872764
 O      24.35707607    19.36078710    22.24724356
 H      24.53278605    19.22298739    23.18319475
 H      23.45684646    19.70896135    22.19095952
 O      15.29534140    19.82154364    21.37855221
 H      15.46455477    20.70397838    21.75312448
 H      16.13492260    19.59731508    20.94809720
 O      17.96472076    16.58355915    24.75559010
 H      18.69790798    17.11390455    24.41388015
 H      17.72944068    16.99659813    25.59438401
 O      24.53528902    23.89052195    21.55021964
 H      25.13933016    23.31793330    22.03134842
 H      24.04450828    23.29137369    20.95980098
 O      15.14074599    17.00107258    22.05305540
 H      15.79943483    16.91355253    21.35072993
 H      14.99256424    17.96122053    22.06527606
 O      16.96000933    23.95834130    24.86052445
 H      17.87727604    23.93673836    24.55451769
 H      17.00970791    23.93369752    25.82077450
 O      24.84553385    19.74257179    19.43874698
 H      24.87513548    19.45627987    20.36548894
 H      24.32339055    20.55945748    19.47897948
 O      21.64095506    18.00932449    25.16125888
 H      21.28422284    17.56767122    24.36021719
 H      21.58977843    17.34190643    25.85187284
 O      15.65531072    18.61702358    17.55984429
 H      15.52770368    19.54492158    17.79063883
 H      15.99959241    18.20726801    18.37141814
 O      22.00583705    23.49676055    24.45499618
 H      22.06219948    24.39117447    24.80735410
 H      21.11087681    23.43633537    24.09010055
 O      20.00557046    25.93529928    23.02053090
 H      19.65091618    25.02904400    23.01126829
 H      19.82349604    26.27042695    23.90555598
                                                                                
650 nm
1560 nm
 
